outputs/case_245.model.txt
temporary_transaction_terminated = False
business_relationship_terminated = False
enhanced_due_diligence_executed = True
customer_is_politically_exposed_person_or_related = False
customer_data_retention_years = 3
longer_legal_retention_years = 0
customer_identification_data_retained = True
compliance_ok = True
internal_control_implemented = True
control_procedures_established = True
other_required_matters_established = True
customer_identification_procedure_established = True
internal_control_executed = True
beneficial_owner_reviewed = True
dedicated_personnel_assigned = True
penalty = False
internal_control_established = True
audit_procedures_established = True
risk_assessment_report_updated = True
enhanced_customer_due_diligence_ok = True
training_held = True
customer_identification_procedure_ok = True